************************************************************************
file with basedata            : md380_.bas
initial value random generator: 54899964
************************************************************************
projects                      :  1
jobs (incl. supersource/sink ):  22
horizon                       :  166
RESOURCES
  - renewable                 :  2   R
  - nonrenewable              :  2   N
  - doubly constrained        :  0   D
************************************************************************
PROJECT INFORMATION:
pronr.  #jobs rel.date duedate tardcost  MPM-Time
    1     20      0       20       19       20
************************************************************************
PRECEDENCE RELATIONS:
jobnr.    #modes  #successors   successors
   1        1          3           2   3   4
   2        3          1          14
   3        3          3           5  12  14
   4        3          3           6   7   8
   5        3          1           9
   6        3          3          11  16  21
   7        3          2          10  13
   8        3          3          10  12  16
   9        3          3          13  15  16
  10        3          2          17  18
  11        3          2          14  20
  12        3          2          15  21
  13        3          2          18  20
  14        3          1          15
  15        3          1          17
  16        3          2          19  20
  17        3          1          19
  18        3          2          19  21
  19        3          1          22
  20        3          1          22
  21        3          1          22
  22        1          0        
************************************************************************
REQUESTS/DURATIONS:
jobnr. mode duration  R 1  R 2  N 1  N 2
------------------------------------------------------------------------
  1      1     0       0    0    0    0
  2      1     3       9    0    6    3
         2     4       9    0    5    2
         3     6       8    0    4    2
  3      1     2       8    0    7    2
         2     6       0    8    5    2
         3     7       6    0    3    1
  4      1     1       6    0    5    5
         2     2       0    2    5    5
         3     6       4    0    4    4
  5      1     2       5    0    8    9
         2     5       0    8    8    5
         3    10       3    0    7    5
  6      1     1       4    0    4    8
         2     9       0    8    3    6
         3    10       0    5    2    5
  7      1     4       4    0    3    5
         2     5       0    1    3    4
         3     8       1    0    3    3
  8      1     1       0    9    3    6
         2    10       0    5    3    5
         3    10       0    6    2    3
  9      1     2       3    0   10    7
         2     5       0   10    7    6
         3     7       1    0    6    3
 10      1     4       0    3    8    7
         2     9       9    0    7    5
         3    10       3    0    7    1
 11      1     3       8    0    5    5
         2     3       0    4    6    5
         3     4       9    0    5    3
 12      1     4       9    0    8   10
         2     5       0    9    7    9
         3     6       0    8    7    9
 13      1     7       0    8    6    9
         2     8       0    6    6    8
         3     9       0    5    6    6
 14      1     4       9    0    6    6
         2     9       0    2    5    1
         3     9       8    0    4    3
 15      1     3       2    0    6    8
         2     5       0    9    4    5
         3     8       0    8    1    5
 16      1     3       0    4    7    9
         2     5       6    0    7    6
         3    10       0    2    6    1
 17      1     3       4    0    5    6
         2     6       0    7    3    6
         3     7       0    4    2    5
 18      1     1       0    7    7   10
         2     7       0    5    7    7
         3     9      10    0    5    6
 19      1     1       7    0    5    5
         2     6       0    4    3    4
         3    10       5    0    3    2
 20      1     7       0    7    7    6
         2     9       0    6    6    5
         3    10       0    6    3    4
 21      1     3       7    0    8    9
         2     3       0   10    8    9
         3    10       7    0    7    9
 22      1     0       0    0    0    0
************************************************************************
RESOURCEAVAILABILITIES:
  R 1  R 2  N 1  N 2
   36   28  125  135
************************************************************************
MAXIMAL LAGS:
from  to  type  delay
    1   22   ES      0
    1    2   ES      0
    2   22   ES      0
    1    3   ES      0
    3   22   ES      0
    1    4   ES      0
    4   22   ES      0
    1    5   ES      0
    5   22   ES      0
    1    6   ES      0
    6   22   ES      0
    1    7   ES      0
    7   22   ES      0
    1    8   ES      0
    8   22   ES      0
    1    9   ES      0
    9   22   ES      0
    1   10   ES      0
   10   22   ES      0
    1   11   ES      0
   11   22   ES      0
    1   12   ES      0
   12   22   ES      0
    1   13   ES      0
   13   22   ES      0
    1   14   ES      0
   14   22   ES      0
    1   15   ES      0
   15   22   ES      0
    1   16   ES      0
   16   22   ES      0
    1   17   ES      0
   17   22   ES      0
    1   18   ES      0
   18   22   ES      0
    1   19   ES      0
   19   22   ES      0
    1   20   ES      0
   20   22   ES      0
    1   21   ES      0
   21   22   ES      0
    1   22   ES      0
    2   14   SS    -10
    2   14   SE      2
    2   14   ES      2
    2   14   EE     -4
    3    5   SS      6
    3    5   SE     10
    3    5   ES    -10
    3    5   EE     -9
    3   12   SS     12
    3   12   SE      3
    3   12   ES      1
    3   12   EE      2
    3   14   SS     -2
    3   14   SE     -1
    3   14   ES    -12
    3   14   EE     10
    4    6   SS      9
    4    6   SE    -11
    4    6   ES     -4
    4    6   EE     -6
    4    7   SS      3
    4    7   SE     -2
    4    7   ES      8
    4    7   EE     -6
    4    8   SS     11
    4    8   SE     -9
    4    8   ES     -2
    4    8   EE      2
    5    9   SS     -1
    5    9   SE      8
    5    9   ES      9
    5    9   EE     -8
    6   11   SS     -7
    6   11   SE      7
    6   11   ES     -2
    6   11   EE    -11
    6   16   SS     10
    6   16   SE      5
    6   16   ES     -5
    6   16   EE      5
    6   21   SS      0
    6   21   SE    -11
    6   21   ES     -6
    6   21   EE      6
    7   10   SS    -11
    7   10   SE     -6
    7   10   ES      1
    7   10   EE      3
    7   13   SS     -3
    7   13   SE      5
    7   13   ES      1
    7   13   EE      2
    8   10   SS     -1
    8   10   SE      0
    8   10   ES      3
    8   10   EE     -1
    8   12   SS     -6
    8   12   SE     12
    8   12   ES     -2
    8   12   EE    -10
    8   16   SS     -2
    8   16   SE     -5
    8   16   ES     -4
    8   16   EE      9
    9   13   SS     10
    9   13   SE      3
    9   13   ES     -3
    9   13   EE     -6
    9   15   SS      7
    9   15   SE     -8
    9   15   ES      3
    9   15   EE    -12
    9   16   SS      4
    9   16   SE     -9
    9   16   ES     -7
    9   16   EE    -11
   10   17   SS      2
   10   17   SE      5
   10   17   ES    -11
   10   17   EE     12
   10   18   SS     10
   10   18   SE    -12
   10   18   ES     -6
   10   18   EE      3
   11   14   SS      5
   11   14   SE    -10
   11   14   ES    -12
   11   14   EE     -9
   11   20   SS    -12
   11   20   SE     -5
   11   20   ES      8
   11   20   EE     -8
   12   15   SS    -12
   12   15   SE      4
   12   15   ES     -8
   12   15   EE     -5
   12   21   SS     -4
   12   21   SE     -9
   12   21   ES     12
   12   21   EE      0
   13   18   SS    -12
   13   18   SE      7
   13   18   ES      9
   13   18   EE      7
   13   20   SS    -12
   13   20   SE      6
   13   20   ES      2
   13   20   EE     -1
   14   15   SS      3
   14   15   SE     10
   14   15   ES      4
   14   15   EE      5
   15   17   SS     -1
   15   17   SE     -9
   17   15   SE      0
   15   17   ES      0
   15   17   EE      0
   16   19   SS    -10
   16   19   SE      6
   16   19   ES    -12
   16   19   EE      3
   16   20   SS      0
   16   20   SE     -4
   16   20   ES     -3
   16   20   EE     -4
   17   19   SS      7
   17   19   SE    -11
   17   19   ES     -4
   17   19   EE     -5
   18   19   SS      6
   18   19   SE     -3
   18   19   ES     11
   18   19   EE      9
   18   21   SS     10
   18   21   SE      0
   18   21   ES     10
   18   21   EE    -10
************************************************************************
